p cnf 86 1161
-86 0
-86 -85 0
-86 -85 -75 0
-86 -85 -53 0
-86 -83 0
-86 -83 -37 0
-86 -83 -8 0
-86 -76 0
-86 -76 -75 0
-86 -76 -65 -54 0
-86 -76 -44 0
-86 -75 0
-86 -75 -65 -54 0
-86 -75 -64 0
-86 -75 -64 -54 0
-86 -75 -64 -53 0
-86 -75 -54 0
-86 -75 -40 0
-86 -65 -54 0
-86 -54 0
-86 -54 -53 0
-86 -54 -44 0
-86 -54 -8 0
-86 -53 0
-86 -46 0
-86 -46 -40 0
-86 -46 -11 0
-86 -44 0
-86 -40 -37 0
-86 -40 -3 0
-86 -37 0
-86 -37 -2 0
-86 -11 0
-86 -11 -8 0
-86 -11 -3 0
-86 -8 -2 0
-86 -3 0
-86 -2 0
-85 0
-85 -84 0
-85 -84 -74 0
-85 -84 -52 0
-85 -82 0
-85 -82 -36 0
-85 -82 -7 0
-85 -75 0
-85 -75 -74 0
-85 -75 -64 -53 0
-85 -74 0
-85 -74 -64 -53 0
-85 -74 -63 0
-85 -74 -63 -53 0
-85 -74 -63 -52 0
-85 -74 -53 0
-85 -74 -39 0
-85 -64 -53 0
-85 -53 0
-85 -53 -52 0
-85 -53 -7 0
-85 -52 0
-85 -45 0
-85 -45 -39 0
-85 -45 -10 0
-85 -39 -36 0
-85 -39 -2 0
-85 -36 0
-85 -36 -1 0
-85 -10 0
-85 -10 -7 0
-85 -10 -2 0
-85 -7 -1 0
-85 -2 0
-85 -1 0
-84 0
-84 -83 0
-84 -83 -73 0
-84 -83 -51 0
-84 -81 0
-84 -81 -35 0
-84 -81 -6 0
-84 -74 0
-84 -74 -73 0
-84 -74 -63 -52 0
-84 -73 0
-84 -73 -63 -52 0
-84 -73 -62 0
-84 -73 -62 -52 0
-84 -73 -62 -51 0
-84 -73 -52 0
-84 -73 -38 0
-84 -63 -52 0
-84 -52 0
-84 -52 -51 0
-84 -52 -6 0
-84 -51 0
-84 -44 0
-84 -44 -38 0
-84 -44 -9 0
-84 -43 0
-84 -43 -35 0
-84 -43 -6 0
-84 -38 -35 0
-84 -38 -1 0
-84 -35 0
-84 -9 0
-84 -9 -6 0
-84 -9 -1 0
-84 -1 0
-83 0
-83 -82 0
-83 -82 -72 0
-83 -82 -50 0
-83 -80 0
-83 -80 -34 0
-83 -80 -5 0
-83 -73 0
-83 -73 -72 0
-83 -73 -62 -51 0
-83 -72 0
-83 -72 -62 -51 0
-83 -72 -61 0
-83 -72 -61 -51 0
-83 -72 -61 -50 0
-83 -72 -51 0
-83 -72 -37 0
-83 -62 -51 0
-83 -51 0
-83 -51 -50 0
-83 -51 -5 0
-83 -50 0
-83 -43 0
-83 -43 -37 0
-83 -43 -8 0
-83 -42 0
-83 -42 -34 0
-83 -42 -5 0
-83 -37 -34 0
-83 -34 0
-83 -8 0
-83 -8 -5 0
-82 0
-82 -81 0
-82 -81 -71 0
-82 -81 -49 0
-82 -79 0
-82 -79 -33 0
-82 -79 -4 0
-82 -72 0
-82 -72 -71 0
-82 -72 -61 -50 0
-82 -71 0
-82 -71 -61 -50 0
-82 -71 -60 0
-82 -71 -60 -50 0
-82 -71 -60 -49 0
-82 -71 -50 0
-82 -71 -36 0
-82 -61 -50 0
-82 -50 0
-82 -50 -49 0
-82 -50 -4 0
-82 -49 0
-82 -42 0
-82 -42 -36 0
-82 -42 -7 0
-82 -41 0
-82 -41 -33 0
-82 -41 -4 0
-82 -36 -33 0
-82 -33 0
-82 -7 0
-82 -7 -4 0
-81 0
-81 -80 0
-81 -80 -70 0
-81 -80 -48 0
-81 -78 0
-81 -78 -32 0
-81 -78 -3 0
-81 -71 0
-81 -71 -70 0
-81 -71 -60 -49 0
-81 -70 0
-81 -70 -60 -49 0
-81 -70 -59 0
-81 -70 -59 -49 0
-81 -70 -59 -48 0
-81 -70 -49 0
-81 -70 -35 0
-81 -60 -49 0
-81 -49 0
-81 -49 -48 0
-81 -49 -3 0
-81 -48 0
-81 -41 0
-81 -41 -35 0
-81 -41 -6 0
-81 -40 0
-81 -40 -32 0
-81 -40 -3 0
-81 -35 -32 0
-81 -32 0
-81 -6 0
-81 -6 -3 0
-80 0
-80 -79 0
-80 -79 -69 0
-80 -79 -47 0
-80 -77 0
-80 -77 -31 0
-80 -77 -2 0
-80 -70 0
-80 -70 -69 0
-80 -70 -59 -48 0
-80 -69 0
-80 -69 -59 -48 0
-80 -69 -58 0
-80 -69 -58 -48 0
-80 -69 -58 -47 0
-80 -69 -48 0
-80 -69 -34 0
-80 -59 -48 0
-80 -48 0
-80 -48 -47 0
-80 -48 -2 0
-80 -47 0
-80 -40 0
-80 -40 -34 0
-80 -40 -5 0
-80 -39 0
-80 -39 -31 0
-80 -39 -2 0
-80 -34 -31 0
-80 -31 0
-80 -5 0
-80 -5 -2 0
-79 0
-79 -78 0
-79 -78 -68 0
-79 -78 -46 0
-79 -76 0
-79 -76 -30 0
-79 -76 -1 0
-79 -69 0
-79 -69 -68 0
-79 -69 -58 -47 0
-79 -68 0
-79 -68 -58 -47 0
-79 -68 -57 0
-79 -68 -57 -47 0
-79 -68 -57 -46 0
-79 -68 -47 0
-79 -68 -33 0
-79 -58 -47 0
-79 -47 0
-79 -47 -46 0
-79 -47 -1 0
-79 -46 0
-79 -39 0
-79 -39 -33 0
-79 -39 -4 0
-79 -38 0
-79 -38 -30 0
-79 -38 -1 0
-79 -33 -30 0
-79 -30 0
-79 -4 0
-79 -4 -1 0
-78 0
-78 -77 0
-78 -77 -67 0
-78 -77 -45 0
-78 -75 0
-78 -75 -43 0
-78 -75 -29 0
-78 -68 0
-78 -68 -67 0
-78 -68 -57 -46 0
-78 -67 0
-78 -67 -57 -46 0
-78 -67 -56 0
-78 -67 -56 -46 0
-78 -67 -56 -45 0
-78 -67 -46 0
-78 -67 -32 0
-78 -57 -46 0
-78 -46 0
-78 -46 -45 0
-78 -46 -43 0
-78 -45 0
-78 -43 -37 0
-78 -43 -3 0
-78 -38 0
-78 -38 -32 0
-78 -38 -3 0
-78 -37 0
-78 -37 -29 0
-78 -32 -29 0
-78 -29 0
-78 -3 0
-77 0
-77 -76 0
-77 -76 -66 0
-77 -76 -44 0
-77 -74 0
-77 -74 -42 0
-77 -74 -28 0
-77 -67 0
-77 -67 -66 0
-77 -67 -56 -45 0
-77 -66 0
-77 -66 -56 -45 0
-77 -66 -55 0
-77 -66 -55 -45 0
-77 -66 -55 -44 0
-77 -66 -45 0
-77 -66 -31 0
-77 -56 -45 0
-77 -45 0
-77 -45 -44 0
-77 -45 -42 0
-77 -44 0
-77 -42 -36 0
-77 -42 -2 0
-77 -37 0
-77 -37 -31 0
-77 -37 -2 0
-77 -36 0
-77 -36 -28 0
-77 -31 -28 0
-77 -28 0
-77 -2 0
-76 0
-76 -75 0
-76 -75 -65 0
-76 -73 0
-76 -73 -41 0
-76 -73 -27 0
-76 -66 0
-76 -66 -65 0
-76 -66 -55 -44 0
-76 -65 0
-76 -65 -55 -44 0
-76 -65 -54 0
-76 -65 -54 -44 0
-76 -65 -44 0
-76 -65 -30 0
-76 -55 -44 0
-76 -44 0
-76 -44 -41 0
-76 -41 -35 0
-76 -41 -1 0
-76 -36 0
-76 -36 -30 0
-76 -36 -1 0
-76 -35 0
-76 -35 -27 0
-76 -30 -27 0
-76 -27 0
-76 -1 0
-75 0
-75 -74 0
-75 -74 -64 0
-75 -72 0
-75 -72 -40 0
-75 -72 -26 0
-75 -65 0
-75 -65 -64 0
-75 -64 0
-75 -64 -53 0
-75 -64 -29 0
-75 -43 0
-75 -43 -40 0
-75 -43 -35 0
-75 -40 -34 0
-75 -35 0
-75 -35 -29 0
-75 -34 0
-75 -34 -26 0
-75 -29 -26 0
-75 -26 0
-74 0
-74 -73 0
-74 -73 -63 0
-74 -71 0
-74 -71 -39 0
-74 -71 -25 0
-74 -64 0
-74 -64 -63 0
-74 -63 0
-74 -63 -52 0
-74 -63 -28 0
-74 -42 0
-74 -42 -39 0
-74 -42 -34 0
-74 -39 -33 0
-74 -34 0
-74 -34 -28 0
-74 -33 0
-74 -33 -25 0
-74 -28 -25 0
-74 -25 0
-73 0
-73 -72 0
-73 -72 -62 0
-73 -70 0
-73 -70 -38 0
-73 -70 -24 0
-73 -63 0
-73 -63 -62 0
-73 -62 0
-73 -62 -51 0
-73 -62 -27 0
-73 -41 0
-73 -41 -38 0
-73 -41 -33 0
-73 -38 -32 0
-73 -33 0
-73 -33 -27 0
-73 -32 0
-73 -32 -24 0
-73 -27 -24 0
-73 -24 0
-72 0
-72 -71 0
-72 -71 -61 0
-72 -69 0
-72 -69 -37 0
-72 -69 -23 0
-72 -62 0
-72 -62 -61 0
-72 -61 0
-72 -61 -50 0
-72 -61 -26 0
-72 -40 0
-72 -40 -37 0
-72 -40 -32 0
-72 -37 -31 0
-72 -32 0
-72 -32 -26 0
-72 -31 0
-72 -31 -23 0
-72 -26 -23 0
-72 -23 0
-71 0
-71 -70 0
-71 -70 -60 0
-71 -68 0
-71 -68 -36 0
-71 -68 -22 0
-71 -61 0
-71 -61 -60 0
-71 -60 0
-71 -60 -49 0
-71 -60 -25 0
-71 -39 0
-71 -39 -36 0
-71 -39 -31 0
-71 -36 -30 0
-71 -31 0
-71 -31 -25 0
-71 -30 0
-71 -30 -22 0
-71 -25 -22 0
-71 -22 0
-70 0
-70 -69 0
-70 -69 -59 0
-70 -67 0
-70 -67 -35 0
-70 -67 -21 0
-70 -60 0
-70 -60 -59 0
-70 -59 0
-70 -59 -48 0
-70 -59 -24 0
-70 -38 0
-70 -38 -35 0
-70 -38 -30 0
-70 -35 -29 0
-70 -30 0
-70 -30 -24 0
-70 -29 0
-70 -29 -21 0
-70 -24 -21 0
-70 -21 0
-69 0
-69 -68 0
-69 -68 -58 0
-69 -66 0
-69 -66 -34 0
-69 -66 -20 0
-69 -59 0
-69 -59 -58 0
-69 -58 0
-69 -58 -47 0
-69 -58 -23 0
-69 -37 0
-69 -37 -34 0
-69 -37 -29 0
-69 -34 -28 0
-69 -29 0
-69 -29 -23 0
-69 -28 0
-69 -28 -20 0
-69 -23 -20 0
-69 -20 0
-68 0
-68 -67 0
-68 -67 -57 0
-68 -65 0
-68 -65 -33 0
-68 -65 -19 0
-68 -58 0
-68 -58 -57 0
-68 -57 0
-68 -57 -46 0
-68 -57 -22 0
-68 -36 0
-68 -36 -33 0
-68 -36 -28 0
-68 -33 -27 0
-68 -28 0
-68 -28 -22 0
-68 -27 0
-68 -27 -19 0
-68 -22 -19 0
-68 -19 0
-67 0
-67 -66 0
-67 -66 -56 0
-67 -64 0
-67 -64 -32 0
-67 -64 -18 0
-67 -57 0
-67 -57 -56 0
-67 -56 0
-67 -56 -45 0
-67 -56 -21 0
-67 -35 0
-67 -35 -32 0
-67 -35 -27 0
-67 -32 -26 0
-67 -27 0
-67 -27 -21 0
-67 -26 0
-67 -26 -18 0
-67 -21 -18 0
-67 -18 0
-66 0
-66 -65 0
-66 -65 -55 0
-66 -63 0
-66 -63 -31 0
-66 -63 -17 0
-66 -56 0
-66 -56 -55 0
-66 -55 0
-66 -55 -44 0
-66 -55 -20 0
-66 -34 0
-66 -34 -31 0
-66 -34 -26 0
-66 -31 -25 0
-66 -26 0
-66 -26 -20 0
-66 -25 0
-66 -25 -17 0
-66 -20 -17 0
-66 -17 0
-65 0
-65 -64 0
-65 -64 -54 0
-65 -62 0
-65 -62 -30 0
-65 -62 -16 0
-65 -55 0
-65 -55 -54 0
-65 -54 0
-65 -54 -19 0
-65 -33 0
-65 -33 -30 0
-65 -33 -25 0
-65 -30 -24 0
-65 -25 0
-65 -25 -19 0
-65 -24 0
-65 -24 -16 0
-65 -19 -16 0
-65 -16 0
-64 0
-64 -63 0
-64 -63 -53 0
-64 -61 0
-64 -61 -29 0
-64 -61 -15 0
-64 -54 0
-64 -54 -53 0
-64 -53 0
-64 -53 -18 0
-64 -32 0
-64 -32 -29 0
-64 -32 -24 0
-64 -29 -23 0
-64 -24 0
-64 -24 -18 0
-64 -23 0
-64 -23 -15 0
-64 -18 -15 0
-64 -15 0
-63 0
-63 -62 0
-63 -62 -52 0
-63 -60 0
-63 -60 -28 0
-63 -60 -14 0
-63 -53 0
-63 -53 -52 0
-63 -52 0
-63 -52 -17 0
-63 -31 0
-63 -31 -28 0
-63 -31 -23 0
-63 -28 -22 0
-63 -23 0
-63 -23 -17 0
-63 -22 0
-63 -22 -14 0
-63 -17 -14 0
-63 -14 0
-62 0
-62 -61 0
-62 -61 -51 0
-62 -59 0
-62 -59 -27 0
-62 -59 -13 0
-62 -52 0
-62 -52 -51 0
-62 -51 0
-62 -51 -16 0
-62 -30 0
-62 -30 -27 0
-62 -30 -22 0
-62 -27 -21 0
-62 -22 0
-62 -22 -16 0
-62 -21 0
-62 -21 -13 0
-62 -16 -13 0
-62 -13 0
-61 0
-61 -60 0
-61 -60 -50 0
-61 -58 0
-61 -58 -26 0
-61 -58 -12 0
-61 -51 0
-61 -51 -50 0
-61 -50 0
-61 -50 -15 0
-61 -29 0
-61 -29 -26 0
-61 -29 -21 0
-61 -26 -20 0
-61 -21 0
-61 -21 -15 0
-61 -20 0
-61 -20 -12 0
-61 -15 -12 0
-61 -12 0
-60 0
-60 -59 0
-60 -59 -49 0
-60 -57 0
-60 -57 -25 0
-60 -57 -11 0
-60 -50 0
-60 -50 -49 0
-60 -49 0
-60 -49 -14 0
-60 -28 0
-60 -28 -25 0
-60 -28 -20 0
-60 -25 -19 0
-60 -20 0
-60 -20 -14 0
-60 -19 0
-60 -19 -11 0
-60 -14 -11 0
-60 -11 0
-59 0
-59 -58 0
-59 -58 -48 0
-59 -56 0
-59 -56 -24 0
-59 -56 -10 0
-59 -49 0
-59 -49 -48 0
-59 -48 0
-59 -48 -13 0
-59 -27 0
-59 -27 -24 0
-59 -27 -19 0
-59 -24 -18 0
-59 -19 0
-59 -19 -13 0
-59 -18 0
-59 -18 -10 0
-59 -13 -10 0
-59 -10 0
-58 0
-58 -57 0
-58 -57 -47 0
-58 -55 0
-58 -55 -23 0
-58 -55 -9 0
-58 -48 0
-58 -48 -47 0
-58 -47 0
-58 -47 -12 0
-58 -26 0
-58 -26 -23 0
-58 -26 -18 0
-58 -23 -17 0
-58 -18 0
-58 -18 -12 0
-58 -17 0
-58 -17 -9 0
-58 -12 -9 0
-58 -9 0
-57 0
-57 -56 0
-57 -56 -46 0
-57 -54 0
-57 -54 -22 0
-57 -54 -8 0
-57 -47 0
-57 -47 -46 0
-57 -46 0
-57 -46 -11 0
-57 -25 0
-57 -25 -22 0
-57 -25 -17 0
-57 -22 -16 0
-57 -17 0
-57 -17 -11 0
-57 -16 0
-57 -16 -8 0
-57 -11 -8 0
-57 -8 0
-56 0
-56 -55 0
-56 -55 -45 0
-56 -53 0
-56 -53 -21 0
-56 -53 -7 0
-56 -46 0
-56 -46 -45 0
-56 -45 0
-56 -45 -10 0
-56 -24 0
-56 -24 -21 0
-56 -24 -16 0
-56 -21 -15 0
-56 -16 0
-56 -16 -10 0
-56 -15 0
-56 -15 -7 0
-56 -10 -7 0
-56 -7 0
-55 0
-55 -54 0
-55 -54 -44 0
-55 -52 0
-55 -52 -20 0
-55 -52 -6 0
-55 -45 0
-55 -45 -44 0
-55 -44 0
-55 -44 -9 0
-55 -23 0
-55 -23 -20 0
-55 -23 -15 0
-55 -20 -14 0
-55 -15 0
-55 -15 -9 0
-55 -14 0
-55 -14 -6 0
-55 -9 -6 0
-55 -6 0
-54 0
-54 -53 0
-54 -51 0
-54 -51 -19 0
-54 -51 -5 0
-54 -44 0
-54 -22 0
-54 -22 -19 0
-54 -22 -14 0
-54 -19 -13 0
-54 -14 0
-54 -14 -8 0
-54 -13 0
-54 -13 -5 0
-54 -8 -5 0
-54 -5 0
-53 0
-53 -52 0
-53 -50 0
-53 -50 -18 0
-53 -50 -4 0
-53 -21 0
-53 -21 -18 0
-53 -21 -13 0
-53 -18 -12 0
-53 -13 0
-53 -13 -7 0
-53 -12 0
-53 -12 -4 0
-53 -7 -4 0
-53 -4 0
-52 0
-52 -51 0
-52 -49 0
-52 -49 -17 0
-52 -49 -3 0
-52 -20 0
-52 -20 -17 0
-52 -20 -12 0
-52 -17 -11 0
-52 -12 0
-52 -12 -6 0
-52 -11 0
-52 -11 -3 0
-52 -6 -3 0
-52 -3 0
-51 0
-51 -50 0
-51 -48 0
-51 -48 -16 0
-51 -48 -2 0
-51 -19 0
-51 -19 -16 0
-51 -19 -11 0
-51 -16 -10 0
-51 -11 0
-51 -11 -5 0
-51 -10 0
-51 -10 -2 0
-51 -5 -2 0
-51 -2 0
-50 0
-50 -49 0
-50 -47 0
-50 -47 -15 0
-50 -47 -1 0
-50 -18 0
-50 -18 -15 0
-50 -18 -10 0
-50 -15 -9 0
-50 -10 0
-50 -10 -4 0
-50 -9 0
-50 -9 -1 0
-50 -4 -1 0
-50 -1 0
-49 0
-49 -48 0
-49 -46 0
-49 -46 -43 0
-49 -46 -14 0
-49 -43 0
-49 -43 -8 0
-49 -43 -3 0
-49 -17 0
-49 -17 -14 0
-49 -17 -9 0
-49 -14 -8 0
-49 -9 0
-49 -9 -3 0
-49 -8 0
-48 0
-48 -47 0
-48 -45 0
-48 -45 -42 0
-48 -45 -13 0
-48 -42 0
-48 -42 -7 0
-48 -42 -2 0
-48 -16 0
-48 -16 -13 0
-48 -16 -8 0
-48 -13 -7 0
-48 -8 0
-48 -8 -2 0
-48 -7 0
-47 0
-47 -46 0
-47 -44 0
-47 -44 -41 0
-47 -44 -12 0
-47 -41 0
-47 -41 -6 0
-47 -41 -1 0
-47 -15 0
-47 -15 -12 0
-47 -15 -7 0
-47 -12 -6 0
-47 -7 0
-47 -7 -1 0
-47 -6 0
-46 0
-46 -45 0
-46 -43 -40 0
-46 -43 -6 0
-46 -40 0
-46 -40 -5 0
-46 -14 0
-46 -14 -11 0
-46 -14 -6 0
-46 -11 -5 0
-46 -6 0
-46 -5 0
-45 0
-45 -44 0
-45 -42 -39 0
-45 -42 -5 0
-45 -39 0
-45 -39 -4 0
-45 -13 0
-45 -13 -10 0
-45 -13 -5 0
-45 -10 -4 0
-45 -5 0
-45 -4 0
-44 0
-44 -41 -38 0
-44 -41 -4 0
-44 -38 0
-44 -38 -3 0
-44 -12 0
-44 -12 -9 0
-44 -12 -4 0
-44 -9 -3 0
-44 -4 0
-44 -3 0
-43 -40 -37 0
-43 -40 -3 0
-43 -6 -3 0
-42 -39 -36 0
-42 -39 -2 0
-42 -5 -2 0
-41 -38 -35 0
-41 -38 -1 0
-41 -4 -1 0
-40 -37 -34 0
-39 -36 -33 0
-38 -35 -32 0
-37 -34 -31 0
-36 -33 -30 0
-35 -32 -29 0
-34 -31 -28 0
-33 -30 -27 0
-32 -29 -26 0
-31 -28 -25 0
-30 -27 -24 0
-29 -26 -23 0
-28 -25 -22 0
-27 -24 -21 0
-26 -23 -20 0
-25 -22 -19 0
-24 -21 -18 0
-23 -20 -17 0
-22 -19 -16 0
-21 -18 -15 0
-20 -17 -14 0
-19 -16 -13 0
-18 -15 -12 0
-17 -14 -11 0
-16 -13 -10 0
-15 -12 -9 0
-14 -11 -8 0
-13 -10 -7 0
-12 -9 -6 0
-11 -8 -5 0
-10 -7 -4 0
-9 -6 -3 0
-8 -5 -2 0
-7 -4 -1 0
1 14 57 0
1 14 82 0
1 20 63 0
1 20 82 0
1 25 44 0
1 25 63 0
1 31 44 0
1 31 69 0
2 15 58 0
2 15 83 0
2 21 64 0
2 21 83 0
2 26 45 0
2 26 64 0
2 32 45 0
2 32 70 0
3 16 59 0
3 16 84 0
3 22 65 0
3 22 84 0
3 27 46 0
3 27 65 0
3 33 46 0
3 33 71 0
4 17 60 0
4 17 85 0
4 23 66 0
4 23 85 0
4 28 47 0
4 28 66 0
4 34 47 0
4 34 72 0
5 18 61 0
5 18 86 0
5 24 67 0
5 24 86 0
5 29 48 0
5 29 67 0
5 35 48 0
5 35 73 0
6 19 44 0
6 19 62 0
6 25 44 0
6 25 68 0
6 30 49 0
6 30 68 0
6 36 49 0
6 36 74 0
7 20 45 0
7 20 63 0
7 26 45 0
7 26 69 0
7 31 50 0
7 31 69 0
7 37 50 0
7 37 75 0
8 21 46 0
8 21 64 0
8 27 46 0
8 27 70 0
8 32 51 0
8 32 70 0
8 38 51 0
8 38 76 0
9 22 47 0
9 22 65 0
9 28 47 0
9 28 71 0
9 33 52 0
9 33 71 0
9 39 52 0
9 39 77 0
10 23 48 0
10 23 66 0
10 29 48 0
10 29 72 0
10 34 53 0
10 34 72 0
10 40 53 0
10 40 78 0
11 24 49 0
11 24 67 0
11 30 49 0
11 30 73 0
11 35 54 0
11 35 73 0
11 41 54 0
11 41 79 0
12 25 50 0
12 25 68 0
12 31 50 0
12 31 74 0
12 36 55 0
12 36 74 0
12 42 55 0
12 42 80 0
13 26 51 0
13 26 69 0
13 32 51 0
13 32 75 0
13 37 56 0
13 37 75 0
13 43 56 0
13 43 81 0
14 27 52 0
14 27 70 0
14 33 52 0
14 33 76 0
14 38 57 0
14 38 76 0
15 28 53 0
15 28 71 0
15 34 53 0
15 34 77 0
15 39 58 0
15 39 77 0
16 29 54 0
16 29 72 0
16 35 54 0
16 35 78 0
16 40 59 0
16 40 78 0
17 30 55 0
17 30 73 0
17 36 55 0
17 36 79 0
17 41 60 0
17 41 79 0
18 31 56 0
18 31 74 0
18 37 56 0
18 37 80 0
18 42 61 0
18 42 80 0
19 32 57 0
19 32 75 0
19 38 57 0
19 38 81 0
19 43 62 0
19 43 81 0
20 33 58 0
20 33 76 0
20 39 58 0
20 39 82 0
21 34 59 0
21 34 77 0
21 40 59 0
21 40 83 0
22 35 60 0
22 35 78 0
22 41 60 0
22 41 84 0
23 36 61 0
23 36 79 0
23 42 61 0
23 42 85 0
24 37 62 0
24 37 80 0
24 43 62 0
24 43 86 0
25 38 63 0
25 38 81 0
26 39 64 0
26 39 82 0
27 40 65 0
27 40 83 0
28 41 66 0
28 41 84 0
29 42 67 0
29 42 85 0
30 43 68 0
30 43 86 0
